DIMENSION :13
NODE_COORD_SECTION
1 19.366121210579365 -26.57329617144856
2 -21.142282586306393 -50.18107644443557
3 -96.83971953679394 -74.57056432759018
4 89.23786722655132 14.365429559008419
5 6.442937096142515 -69.02123661874431
6 -47.49377701685689 -28.791315655775435
7 9.628992406248187 -39.45120288286357
8 -2.045778604848138 -89.37041554179115
9 -66.81803870530365 13.734533054879222
10 21.050013783505776 77.20973827056781
11 11.675991023800108 -17.902392842339594
12 54.82688363222604 7.464043390123436
13 72.14964111250723 49.45956770961743
EOF
